(set-logic QF_S)
(declare-fun var0 () String)
(assert (RegexIn var0 (RegexConcat (RegexUnion (RegexUnion (RegexStar (RegexUnion (RegexStar (RegexPlus (RegexStar (RegexStar (Str2Reg "000"))))) (RegexStar (RegexUnion (RegexStar (RegexPlus (Str2Reg "11"))) (RegexStar (RegexUnion (Str2Reg "222") (Str2Reg "333"))))))) (RegexStar (RegexStar (RegexUnion (RegexUnion (RegexUnion (RegexStar (Str2Reg "444")) (RegexStar (Str2Reg "555"))) (RegexUnion (RegexUnion (Str2Reg "6") (Str2Reg "777")) (RegexUnion (Str2Reg "8") (Str2Reg "99")))) (RegexUnion (RegexUnion (RegexUnion (Str2Reg "a") (Str2Reg "bb")) (RegexUnion (Str2Reg "ccc") (Str2Reg "dd"))) (RegexUnion (RegexPlus (Str2Reg "ee")) (RegexPlus (Str2Reg "f")))))))) (RegexUnion (RegexUnion (RegexUnion (RegexPlus (RegexStar (RegexStar (RegexUnion (Str2Reg "ggg") (Str2Reg "hh"))))) (RegexPlus (RegexUnion (RegexPlus (RegexUnion (Str2Reg "iii") (Str2Reg "jj"))) (RegexPlus (RegexPlus (Str2Reg "kk")))))) (RegexUnion (RegexPlus (RegexUnion (RegexUnion (RegexStar (Str2Reg "l")) (RegexStar (Str2Reg "mm"))) (RegexUnion (RegexStar (Str2Reg "nnn")) (RegexStar (Str2Reg "o"))))) (RegexPlus (RegexPlus (RegexUnion (RegexPlus (Str2Reg "pp")) (RegexPlus (Str2Reg "qqq"))))))) (RegexUnion (RegexStar (RegexStar (RegexPlus (RegexStar (RegexStar (Str2Reg "rrr")))))) (RegexStar (RegexPlus (RegexUnion (RegexPlus (RegexPlus (Str2Reg "ss"))) (RegexPlus (RegexUnion (Str2Reg "ttt") (Str2Reg "u"))))))))) (RegexUnion (RegexPlus (RegexStar (RegexStar (RegexStar (RegexUnion (RegexStar (RegexPlus (Str2Reg "vvv"))) (RegexStar (RegexPlus (Str2Reg "www")))))))) (RegexPlus (RegexUnion (RegexStar (RegexPlus (RegexUnion (RegexUnion (RegexUnion (Str2Reg "xxx") (Str2Reg "y")) (RegexUnion (Str2Reg "zz") (Str2Reg "A"))) (RegexUnion (RegexStar (Str2Reg "B")) (RegexStar (Str2Reg "CC")))))) (RegexStar (RegexPlus (RegexUnion (RegexUnion (RegexUnion (Str2Reg "DD") (Str2Reg "E")) (RegexUnion (Str2Reg "F") (Str2Reg "G"))) (RegexUnion (RegexUnion (Str2Reg "HHH") (Str2Reg "I")) (RegexUnion (Str2Reg "J") (Str2Reg "KKK"))))))))))))
(assert (<= 15 (Length var0)))
(check-sat)